
--- Job TS_Deter.gms Start 04/29/25 18:58:36 49.1.0 5c4d4ed6 WEX-WEI x86 64bit/MS Windows
--- Applying:
    C:\GAMS\49\gmsprmNT.txt
--- GAMS Parameters defined
    Input C:\projekt\TS\TS_Deter.gms
    PageSize 0
    ScrDir C:\projekt\TS\225a\
    SysDir C:\GAMS\49\
    LogOption 3
    ErrMsg 1
    ErrorLog 99
    IDE 1
    LstTitleLeftAligned 1
Licensee: GAMS Demo, for EULA and demo limitations see   G250131/0001CB-GEN
          https://www.gams.com/latest/docs/UG%5FLicense.html         DC0000
          C:\GAMS\49\gamslice.txt
          Demo license for demonstration and instructional purposes only
System information: 12 physical cores and 16 Gb memory detected
GAMS 49.1.0   Copyright (C) 1987-2025 GAMS Development. All rights reserved
--- Starting compilation
--- TS_Deter.gms(77) 3 Mb
--- Starting execution: elapsed 0:00:00.003
--- TS_Deter.gms(27) 4 Mb
--- Generating LP model vyroba
--- TS_Deter.gms(28) 4 Mb
---   15 rows  12 columns  45 non-zeroes
--- Range statistics (absolute non-zero finite values)
--- RHS       [min, max] : [ 2.000E+01, 4.500E+03] - Zero values observed as well
--- Bound     [min, max] : [ 1.000E+02, 1.000E+02] - Zero values observed as well
--- Matrix    [min, max] : [ 1.000E+00, 1.500E+02]
--- Executing CPLEX (Solvelink=2): elapsed 0:00:00.009

IBM ILOG CPLEX   49.1.0 5c4d4ed6 Feb 15, 2025          WEI x86 64bit/MS Window

*** This solver runs with a demo license. No commercial use.
--- GMO setup time: 0.00s
--- GMO memory 0.50 Mb (peak 0.50 Mb)
--- Dictionary memory 0.00 Mb
--- Cplex 22.1.2.0 link memory 0.00 Mb (peak 0.00 Mb)
--- Starting Cplex

Version identifier: 22.1.2.0 | 2024-11-25 | 0edbb82fd
CPXPARAM_Advance                                 0
CPXPARAM_Simplex_Display                         2
CPXPARAM_MIP_Display                             4
CPXPARAM_MIP_Pool_Capacity                       0
CPXPARAM_MIP_Tolerances_AbsMIPGap                0
Tried aggregator 1 time.
LP Presolve eliminated 9 rows and 2 columns.
Reduced LP has 5 rows, 10 columns, and 22 nonzeros.
Presolve time = 0.00 sec. (0.01 ticks)
Initializing dual steep norms . . .

Iteration      Dual Objective            In Variable           Out Variable
     1           21697.500000                   x(3)                  yp(4)
     2           20285.000000                   x(2)                  yp(2)
     3           20098.684211                   x(1)                  yp(3)
     4           19987.500000                  yp(3)                  yp(1)

--- LP status (1): optimal.
--- Cplex Time: 0.00sec (det. 0.03 ticks)


Optimal solution found
Objective:        19987.500000

--- Reading solution for model vyroba
--- Executing after solve: elapsed 0:00:00.042
--- TS_Deter.gms(72) 4 Mb
--- Putfile out C:\projekt\TS\vysledky.txt
*** Status: Normal completion
--- Job TS_Deter.gms Stop 04/29/25 18:58:36 elapsed 0:00:00.043
